39 23 67 55 25 
65 71 78 34 35 77 
14 44 38 43 13 
63 64 49 48 
45 83 84 60 89 
36 47 19 8 46 17 
52 88 7 
59 99 94 96 
92 42 15 87 57 97 
27 69 30 20 32 70 
5 61 85 37 93 
31 51 9 66 1 
82 18 6 
62 11 90 10 
33 29 79 3 68 
95 98 16 86 91 100 
12 54 24 80 
72 75 22 74 58 
40 53 26 
2 21 73 41 56 4 
28 76 81 50 
